* #variable= 690 #constraint= 673 
+1 x21 -1 x1 >= 0 ;
+1 x21 -1 x11 >= 0 ;
-1 x21 +1 x1 +1 x11 >= 0 ;
+1 x31 -1 x11 >= 0 ;
+1 x31 -1 x41 >= 0 ;
-1 x31 +1 x11 +1 x41 >= 0 ;
+1 x11 = 0 ;
+1 x22 -1 x2 >= 0 ;
+1 x22 -1 x12 >= 0 ;
-1 x22 +1 x2 +1 x12 >= 0 ;
+1 x32 -1 x12 >= 0 ;
+1 x32 -1 x42 >= 0 ;
-1 x32 +1 x12 +1 x42 >= 0 ;
+1 x12 = 1 ;
+1 x23 -1 x3 >= 0 ;
+1 x23 -1 x13 >= 0 ;
-1 x23 +1 x3 +1 x13 >= 0 ;
+1 x33 -1 x13 >= 0 ;
+1 x33 -1 x43 >= 0 ;
-1 x33 +1 x13 +1 x43 >= 0 ;
+1 x13 = 0 ;
+1 x24 -1 x4 >= 0 ;
+1 x24 -1 x14 >= 0 ;
-1 x24 +1 x4 +1 x14 >= 0 ;
+1 x34 -1 x14 >= 0 ;
+1 x34 -1 x44 >= 0 ;
-1 x34 +1 x14 +1 x44 >= 0 ;
+1 x14 = 1 ;
+1 x25 -1 x5 >= 0 ;
+1 x25 -1 x15 >= 0 ;
-1 x25 +1 x5 +1 x15 >= 0 ;
+1 x35 -1 x15 >= 0 ;
+1 x35 -1 x45 >= 0 ;
-1 x35 +1 x15 +1 x45 >= 0 ;
+1 x15 = 0 ;
+1 x26 -1 x6 >= 0 ;
+1 x26 -1 x16 >= 0 ;
-1 x26 +1 x6 +1 x16 >= 0 ;
+1 x36 -1 x16 >= 0 ;
+1 x36 -1 x46 >= 0 ;
-1 x36 +1 x16 +1 x46 >= 0 ;
+1 x16 = 1 ;
+1 x27 -1 x7 >= 0 ;
+1 x27 -1 x17 >= 0 ;
-1 x27 +1 x7 +1 x17 >= 0 ;
+1 x37 -1 x17 >= 0 ;
+1 x37 -1 x47 >= 0 ;
-1 x37 +1 x17 +1 x47 >= 0 ;
+1 x17 = 0 ;
+1 x28 -1 x8 >= 0 ;
+1 x28 -1 x18 >= 0 ;
-1 x28 +1 x8 +1 x18 >= 0 ;
+1 x38 -1 x18 >= 0 ;
+1 x38 -1 x48 >= 0 ;
-1 x38 +1 x18 +1 x48 >= 0 ;
+1 x18 = 1 ;
+1 x29 -1 x9 >= 0 ;
+1 x29 -1 x19 >= 0 ;
-1 x29 +1 x9 +1 x19 >= 0 ;
+1 x39 -1 x19 >= 0 ;
+1 x39 -1 x49 >= 0 ;
-1 x39 +1 x19 +1 x49 >= 0 ;
+1 x19 = 0 ;
+1 x30 -1 x10 >= 0 ;
+1 x30 -1 x20 >= 0 ;
-1 x30 +1 x10 +1 x20 >= 0 ;
+1 x40 -1 x20 >= 0 ;
+1 x40 -1 x50 >= 0 ;
-1 x40 +1 x20 +1 x50 >= 0 ;
+1 x20 = 1 ;
-1 x51 +1 x21 >= 0 ;
-1 x51 +1 x31 >= 0 ;
+1 x51 -1 x21 -1 x31 >= -1 ;
+1 x51 +2 x61 +4 x71 +8 x81 +16 x91 +32 x101 +64 x111 +128 x121 +256 x131 +512 x141 +2 x52 +4 x62 +8 x72 +16 x82 +32 x92 +64 x102 +128 x112 +256 x122 +512 x132 +1024 x142 +4 x53 +8 x63 +16 x73 +32 x83 +64 x93 +128 x103 +256 x113 +512 x123 +1024 x133 +2048 x143 +8 x54 +16 x64 +32 x74 +64 x84 +128 x94 +256 x104 +512 x114 +1024 x124 +2048 x134 +4096 x144 +16 x55 +32 x65 +64 x75 +128 x85 +256 x95 +512 x105 +1024 x115 +2048 x125 +4096 x135 +8192 x145 +32 x56 +64 x66 +128 x76 +256 x86 +512 x96 +1024 x106 +2048 x116 +4096 x126 +8192 x136 +16384 x146 +64 x57 +128 x67 +256 x77 +512 x87 +1024 x97 +2048 x107 +4096 x117 +8192 x127 +16384 x137 +32768 x147 +128 x58 +256 x68 +512 x78 +1024 x88 +2048 x98 +4096 x108 +8192 x118 +16384 x128 +32768 x138 +65536 x148 +256 x59 +512 x69 +1024 x79 +2048 x89 +4096 x99 +8192 x109 +16384 x119 +32768 x129 +65536 x139 +131072 x149 +512 x60 +1024 x70 +2048 x80 +4096 x90 +8192 x100 +16384 x110 +32768 x120 +65536 x130 +131072 x140 +262144 x150 -1 x651 -2 x652 -4 x653 -8 x654 -16 x655 -32 x656 -64 x657 -128 x658 -256 x659 -512 x660 -1024 x661 -2048 x662 -4096 x663 -8192 x664 -16384 x665 -32768 x666 -65536 x667 -131072 x668 -262144 x669 -524288 x670 = 0; 
-1 x351 +1 x11 >= 0 ;
-1 x351 +1 x1 >= 0 ;
+1 x351 -1 x11 -1 x1 >= -1 ;
+1 x351 +2 x361 +4 x371 +8 x381 +16 x391 +32 x401 +64 x411 +128 x421 +256 x431 +512 x441 +2 x352 +4 x362 +8 x372 +16 x382 +32 x392 +64 x402 +128 x412 +256 x422 +512 x432 +1024 x442 +4 x353 +8 x363 +16 x373 +32 x383 +64 x393 +128 x403 +256 x413 +512 x423 +1024 x433 +2048 x443 +8 x354 +16 x364 +32 x374 +64 x384 +128 x394 +256 x404 +512 x414 +1024 x424 +2048 x434 +4096 x444 +16 x355 +32 x365 +64 x375 +128 x385 +256 x395 +512 x405 +1024 x415 +2048 x425 +4096 x435 +8192 x445 +32 x356 +64 x366 +128 x376 +256 x386 +512 x396 +1024 x406 +2048 x416 +4096 x426 +8192 x436 +16384 x446 +64 x357 +128 x367 +256 x377 +512 x387 +1024 x397 +2048 x407 +4096 x417 +8192 x427 +16384 x437 +32768 x447 +128 x358 +256 x368 +512 x378 +1024 x388 +2048 x398 +4096 x408 +8192 x418 +16384 x428 +32768 x438 +65536 x448 +256 x359 +512 x369 +1024 x379 +2048 x389 +4096 x399 +8192 x409 +16384 x419 +32768 x429 +65536 x439 +131072 x449 +512 x360 +1024 x370 +2048 x380 +4096 x390 +8192 x400 +16384 x410 +32768 x420 +65536 x430 +131072 x440 +262144 x450 -1 x671 -2 x672 -4 x673 -8 x674 -16 x675 -32 x676 -64 x677 -128 x678 -256 x679 -512 x680 -1024 x681 -2048 x682 -4096 x683 -8192 x684 -16384 x685 -32768 x686 -65536 x687 -131072 x688 -262144 x689 -524288 x690 = 0; 
+1 x671 -1 x651 +2 x672 -2 x652 +4 x673 -4 x653 +8 x674 -8 x654 +16 x675 -16 x655 +32 x676 -32 x656 +64 x677 -64 x657 +128 x678 -128 x658 +256 x679 -256 x659 +512 x680 -512 x660 +1024 x681 -1024 x661 +2048 x682 -2048 x662 +4096 x683 -4096 x663 +8192 x684 -8192 x664 +16384 x685 -16384 x665 +32768 x686 -32768 x666 +65536 x687 -65536 x667 +131072 x688 -131072 x668 +262144 x689 -262144 x669 +524288 x690 -524288 x670 >= 1 ;
-1 x61 +1 x22 >= 0 ;
-1 x61 +1 x31 >= 0 ;
+1 x61 -1 x22 -1 x31 >= -1 ;
-1 x52 +1 x21 >= 0 ;
-1 x52 +1 x32 >= 0 ;
+1 x52 -1 x21 -1 x32 >= -1 ;
-1 x361 +1 x12 >= 0 ;
-1 x361 +1 x1 >= 0 ;
+1 x361 -1 x12 -1 x1 >= -1 ;
-1 x352 +1 x11 >= 0 ;
-1 x352 +1 x2 >= 0 ;
+1 x352 -1 x11 -1 x2 >= -1 ;
-1 x71 +1 x23 >= 0 ;
-1 x71 +1 x31 >= 0 ;
+1 x71 -1 x23 -1 x31 >= -1 ;
-1 x62 +1 x22 >= 0 ;
-1 x62 +1 x32 >= 0 ;
+1 x62 -1 x22 -1 x32 >= -1 ;
-1 x53 +1 x21 >= 0 ;
-1 x53 +1 x33 >= 0 ;
+1 x53 -1 x21 -1 x33 >= -1 ;
-1 x371 +1 x13 >= 0 ;
-1 x371 +1 x1 >= 0 ;
+1 x371 -1 x13 -1 x1 >= -1 ;
-1 x362 +1 x12 >= 0 ;
-1 x362 +1 x2 >= 0 ;
+1 x362 -1 x12 -1 x2 >= -1 ;
-1 x353 +1 x11 >= 0 ;
-1 x353 +1 x3 >= 0 ;
+1 x353 -1 x11 -1 x3 >= -1 ;
-1 x81 +1 x24 >= 0 ;
-1 x81 +1 x31 >= 0 ;
+1 x81 -1 x24 -1 x31 >= -1 ;
-1 x72 +1 x23 >= 0 ;
-1 x72 +1 x32 >= 0 ;
+1 x72 -1 x23 -1 x32 >= -1 ;
-1 x63 +1 x22 >= 0 ;
-1 x63 +1 x33 >= 0 ;
+1 x63 -1 x22 -1 x33 >= -1 ;
-1 x54 +1 x21 >= 0 ;
-1 x54 +1 x34 >= 0 ;
+1 x54 -1 x21 -1 x34 >= -1 ;
-1 x381 +1 x14 >= 0 ;
-1 x381 +1 x1 >= 0 ;
+1 x381 -1 x14 -1 x1 >= -1 ;
-1 x372 +1 x13 >= 0 ;
-1 x372 +1 x2 >= 0 ;
+1 x372 -1 x13 -1 x2 >= -1 ;
-1 x363 +1 x12 >= 0 ;
-1 x363 +1 x3 >= 0 ;
+1 x363 -1 x12 -1 x3 >= -1 ;
-1 x354 +1 x11 >= 0 ;
-1 x354 +1 x4 >= 0 ;
+1 x354 -1 x11 -1 x4 >= -1 ;
-1 x91 +1 x25 >= 0 ;
-1 x91 +1 x31 >= 0 ;
+1 x91 -1 x25 -1 x31 >= -1 ;
-1 x82 +1 x24 >= 0 ;
-1 x82 +1 x32 >= 0 ;
+1 x82 -1 x24 -1 x32 >= -1 ;
-1 x73 +1 x23 >= 0 ;
-1 x73 +1 x33 >= 0 ;
+1 x73 -1 x23 -1 x33 >= -1 ;
-1 x64 +1 x22 >= 0 ;
-1 x64 +1 x34 >= 0 ;
+1 x64 -1 x22 -1 x34 >= -1 ;
-1 x55 +1 x21 >= 0 ;
-1 x55 +1 x35 >= 0 ;
+1 x55 -1 x21 -1 x35 >= -1 ;
-1 x391 +1 x15 >= 0 ;
-1 x391 +1 x1 >= 0 ;
+1 x391 -1 x15 -1 x1 >= -1 ;
-1 x382 +1 x14 >= 0 ;
-1 x382 +1 x2 >= 0 ;
+1 x382 -1 x14 -1 x2 >= -1 ;
-1 x373 +1 x13 >= 0 ;
-1 x373 +1 x3 >= 0 ;
+1 x373 -1 x13 -1 x3 >= -1 ;
-1 x364 +1 x12 >= 0 ;
-1 x364 +1 x4 >= 0 ;
+1 x364 -1 x12 -1 x4 >= -1 ;
-1 x355 +1 x11 >= 0 ;
-1 x355 +1 x5 >= 0 ;
+1 x355 -1 x11 -1 x5 >= -1 ;
-1 x101 +1 x26 >= 0 ;
-1 x101 +1 x31 >= 0 ;
+1 x101 -1 x26 -1 x31 >= -1 ;
-1 x92 +1 x25 >= 0 ;
-1 x92 +1 x32 >= 0 ;
+1 x92 -1 x25 -1 x32 >= -1 ;
-1 x83 +1 x24 >= 0 ;
-1 x83 +1 x33 >= 0 ;
+1 x83 -1 x24 -1 x33 >= -1 ;
-1 x74 +1 x23 >= 0 ;
-1 x74 +1 x34 >= 0 ;
+1 x74 -1 x23 -1 x34 >= -1 ;
-1 x65 +1 x22 >= 0 ;
-1 x65 +1 x35 >= 0 ;
+1 x65 -1 x22 -1 x35 >= -1 ;
-1 x56 +1 x21 >= 0 ;
-1 x56 +1 x36 >= 0 ;
+1 x56 -1 x21 -1 x36 >= -1 ;
-1 x401 +1 x16 >= 0 ;
-1 x401 +1 x1 >= 0 ;
+1 x401 -1 x16 -1 x1 >= -1 ;
-1 x392 +1 x15 >= 0 ;
-1 x392 +1 x2 >= 0 ;
+1 x392 -1 x15 -1 x2 >= -1 ;
-1 x383 +1 x14 >= 0 ;
-1 x383 +1 x3 >= 0 ;
+1 x383 -1 x14 -1 x3 >= -1 ;
-1 x374 +1 x13 >= 0 ;
-1 x374 +1 x4 >= 0 ;
+1 x374 -1 x13 -1 x4 >= -1 ;
-1 x365 +1 x12 >= 0 ;
-1 x365 +1 x5 >= 0 ;
+1 x365 -1 x12 -1 x5 >= -1 ;
-1 x356 +1 x11 >= 0 ;
-1 x356 +1 x6 >= 0 ;
+1 x356 -1 x11 -1 x6 >= -1 ;
-1 x111 +1 x27 >= 0 ;
-1 x111 +1 x31 >= 0 ;
+1 x111 -1 x27 -1 x31 >= -1 ;
-1 x102 +1 x26 >= 0 ;
-1 x102 +1 x32 >= 0 ;
+1 x102 -1 x26 -1 x32 >= -1 ;
-1 x93 +1 x25 >= 0 ;
-1 x93 +1 x33 >= 0 ;
+1 x93 -1 x25 -1 x33 >= -1 ;
-1 x84 +1 x24 >= 0 ;
-1 x84 +1 x34 >= 0 ;
+1 x84 -1 x24 -1 x34 >= -1 ;
-1 x75 +1 x23 >= 0 ;
-1 x75 +1 x35 >= 0 ;
+1 x75 -1 x23 -1 x35 >= -1 ;
-1 x66 +1 x22 >= 0 ;
-1 x66 +1 x36 >= 0 ;
+1 x66 -1 x22 -1 x36 >= -1 ;
-1 x57 +1 x21 >= 0 ;
-1 x57 +1 x37 >= 0 ;
+1 x57 -1 x21 -1 x37 >= -1 ;
-1 x411 +1 x17 >= 0 ;
-1 x411 +1 x1 >= 0 ;
+1 x411 -1 x17 -1 x1 >= -1 ;
-1 x402 +1 x16 >= 0 ;
-1 x402 +1 x2 >= 0 ;
+1 x402 -1 x16 -1 x2 >= -1 ;
-1 x393 +1 x15 >= 0 ;
-1 x393 +1 x3 >= 0 ;
+1 x393 -1 x15 -1 x3 >= -1 ;
-1 x384 +1 x14 >= 0 ;
-1 x384 +1 x4 >= 0 ;
+1 x384 -1 x14 -1 x4 >= -1 ;
-1 x375 +1 x13 >= 0 ;
-1 x375 +1 x5 >= 0 ;
+1 x375 -1 x13 -1 x5 >= -1 ;
-1 x366 +1 x12 >= 0 ;
-1 x366 +1 x6 >= 0 ;
+1 x366 -1 x12 -1 x6 >= -1 ;
-1 x357 +1 x11 >= 0 ;
-1 x357 +1 x7 >= 0 ;
+1 x357 -1 x11 -1 x7 >= -1 ;
-1 x121 +1 x28 >= 0 ;
-1 x121 +1 x31 >= 0 ;
+1 x121 -1 x28 -1 x31 >= -1 ;
-1 x112 +1 x27 >= 0 ;
-1 x112 +1 x32 >= 0 ;
+1 x112 -1 x27 -1 x32 >= -1 ;
-1 x103 +1 x26 >= 0 ;
-1 x103 +1 x33 >= 0 ;
+1 x103 -1 x26 -1 x33 >= -1 ;
-1 x94 +1 x25 >= 0 ;
-1 x94 +1 x34 >= 0 ;
+1 x94 -1 x25 -1 x34 >= -1 ;
-1 x85 +1 x24 >= 0 ;
-1 x85 +1 x35 >= 0 ;
+1 x85 -1 x24 -1 x35 >= -1 ;
-1 x76 +1 x23 >= 0 ;
-1 x76 +1 x36 >= 0 ;
+1 x76 -1 x23 -1 x36 >= -1 ;
-1 x67 +1 x22 >= 0 ;
-1 x67 +1 x37 >= 0 ;
+1 x67 -1 x22 -1 x37 >= -1 ;
-1 x58 +1 x21 >= 0 ;
-1 x58 +1 x38 >= 0 ;
+1 x58 -1 x21 -1 x38 >= -1 ;
-1 x421 +1 x18 >= 0 ;
-1 x421 +1 x1 >= 0 ;
+1 x421 -1 x18 -1 x1 >= -1 ;
-1 x412 +1 x17 >= 0 ;
-1 x412 +1 x2 >= 0 ;
+1 x412 -1 x17 -1 x2 >= -1 ;
-1 x403 +1 x16 >= 0 ;
-1 x403 +1 x3 >= 0 ;
+1 x403 -1 x16 -1 x3 >= -1 ;
-1 x394 +1 x15 >= 0 ;
-1 x394 +1 x4 >= 0 ;
+1 x394 -1 x15 -1 x4 >= -1 ;
-1 x385 +1 x14 >= 0 ;
-1 x385 +1 x5 >= 0 ;
+1 x385 -1 x14 -1 x5 >= -1 ;
-1 x376 +1 x13 >= 0 ;
-1 x376 +1 x6 >= 0 ;
+1 x376 -1 x13 -1 x6 >= -1 ;
-1 x367 +1 x12 >= 0 ;
-1 x367 +1 x7 >= 0 ;
+1 x367 -1 x12 -1 x7 >= -1 ;
-1 x358 +1 x11 >= 0 ;
-1 x358 +1 x8 >= 0 ;
+1 x358 -1 x11 -1 x8 >= -1 ;
-1 x131 +1 x29 >= 0 ;
-1 x131 +1 x31 >= 0 ;
+1 x131 -1 x29 -1 x31 >= -1 ;
-1 x122 +1 x28 >= 0 ;
-1 x122 +1 x32 >= 0 ;
+1 x122 -1 x28 -1 x32 >= -1 ;
-1 x113 +1 x27 >= 0 ;
-1 x113 +1 x33 >= 0 ;
+1 x113 -1 x27 -1 x33 >= -1 ;
-1 x104 +1 x26 >= 0 ;
-1 x104 +1 x34 >= 0 ;
+1 x104 -1 x26 -1 x34 >= -1 ;
-1 x95 +1 x25 >= 0 ;
-1 x95 +1 x35 >= 0 ;
+1 x95 -1 x25 -1 x35 >= -1 ;
-1 x86 +1 x24 >= 0 ;
-1 x86 +1 x36 >= 0 ;
+1 x86 -1 x24 -1 x36 >= -1 ;
-1 x77 +1 x23 >= 0 ;
-1 x77 +1 x37 >= 0 ;
+1 x77 -1 x23 -1 x37 >= -1 ;
-1 x68 +1 x22 >= 0 ;
-1 x68 +1 x38 >= 0 ;
+1 x68 -1 x22 -1 x38 >= -1 ;
-1 x59 +1 x21 >= 0 ;
-1 x59 +1 x39 >= 0 ;
+1 x59 -1 x21 -1 x39 >= -1 ;
-1 x431 +1 x19 >= 0 ;
-1 x431 +1 x1 >= 0 ;
+1 x431 -1 x19 -1 x1 >= -1 ;
-1 x422 +1 x18 >= 0 ;
-1 x422 +1 x2 >= 0 ;
+1 x422 -1 x18 -1 x2 >= -1 ;
-1 x413 +1 x17 >= 0 ;
-1 x413 +1 x3 >= 0 ;
+1 x413 -1 x17 -1 x3 >= -1 ;
-1 x404 +1 x16 >= 0 ;
-1 x404 +1 x4 >= 0 ;
+1 x404 -1 x16 -1 x4 >= -1 ;
-1 x395 +1 x15 >= 0 ;
-1 x395 +1 x5 >= 0 ;
+1 x395 -1 x15 -1 x5 >= -1 ;
-1 x386 +1 x14 >= 0 ;
-1 x386 +1 x6 >= 0 ;
+1 x386 -1 x14 -1 x6 >= -1 ;
-1 x377 +1 x13 >= 0 ;
-1 x377 +1 x7 >= 0 ;
+1 x377 -1 x13 -1 x7 >= -1 ;
-1 x368 +1 x12 >= 0 ;
-1 x368 +1 x8 >= 0 ;
+1 x368 -1 x12 -1 x8 >= -1 ;
-1 x359 +1 x11 >= 0 ;
-1 x359 +1 x9 >= 0 ;
+1 x359 -1 x11 -1 x9 >= -1 ;
-1 x141 +1 x30 >= 0 ;
-1 x141 +1 x31 >= 0 ;
+1 x141 -1 x30 -1 x31 >= -1 ;
-1 x132 +1 x29 >= 0 ;
-1 x132 +1 x32 >= 0 ;
+1 x132 -1 x29 -1 x32 >= -1 ;
-1 x123 +1 x28 >= 0 ;
-1 x123 +1 x33 >= 0 ;
+1 x123 -1 x28 -1 x33 >= -1 ;
-1 x114 +1 x27 >= 0 ;
-1 x114 +1 x34 >= 0 ;
+1 x114 -1 x27 -1 x34 >= -1 ;
-1 x105 +1 x26 >= 0 ;
-1 x105 +1 x35 >= 0 ;
+1 x105 -1 x26 -1 x35 >= -1 ;
-1 x96 +1 x25 >= 0 ;
-1 x96 +1 x36 >= 0 ;
+1 x96 -1 x25 -1 x36 >= -1 ;
-1 x87 +1 x24 >= 0 ;
-1 x87 +1 x37 >= 0 ;
+1 x87 -1 x24 -1 x37 >= -1 ;
-1 x78 +1 x23 >= 0 ;
-1 x78 +1 x38 >= 0 ;
+1 x78 -1 x23 -1 x38 >= -1 ;
-1 x69 +1 x22 >= 0 ;
-1 x69 +1 x39 >= 0 ;
+1 x69 -1 x22 -1 x39 >= -1 ;
-1 x60 +1 x21 >= 0 ;
-1 x60 +1 x40 >= 0 ;
+1 x60 -1 x21 -1 x40 >= -1 ;
-1 x441 +1 x20 >= 0 ;
-1 x441 +1 x1 >= 0 ;
+1 x441 -1 x20 -1 x1 >= -1 ;
-1 x432 +1 x19 >= 0 ;
-1 x432 +1 x2 >= 0 ;
+1 x432 -1 x19 -1 x2 >= -1 ;
-1 x423 +1 x18 >= 0 ;
-1 x423 +1 x3 >= 0 ;
+1 x423 -1 x18 -1 x3 >= -1 ;
-1 x414 +1 x17 >= 0 ;
-1 x414 +1 x4 >= 0 ;
+1 x414 -1 x17 -1 x4 >= -1 ;
-1 x405 +1 x16 >= 0 ;
-1 x405 +1 x5 >= 0 ;
+1 x405 -1 x16 -1 x5 >= -1 ;
-1 x396 +1 x15 >= 0 ;
-1 x396 +1 x6 >= 0 ;
+1 x396 -1 x15 -1 x6 >= -1 ;
-1 x387 +1 x14 >= 0 ;
-1 x387 +1 x7 >= 0 ;
+1 x387 -1 x14 -1 x7 >= -1 ;
-1 x378 +1 x13 >= 0 ;
-1 x378 +1 x8 >= 0 ;
+1 x378 -1 x13 -1 x8 >= -1 ;
-1 x369 +1 x12 >= 0 ;
-1 x369 +1 x9 >= 0 ;
+1 x369 -1 x12 -1 x9 >= -1 ;
-1 x360 +1 x11 >= 0 ;
-1 x360 +1 x10 >= 0 ;
+1 x360 -1 x11 -1 x10 >= -1 ;
-1 x142 +1 x30 >= 0 ;
-1 x142 +1 x32 >= 0 ;
+1 x142 -1 x30 -1 x32 >= -1 ;
-1 x133 +1 x29 >= 0 ;
-1 x133 +1 x33 >= 0 ;
+1 x133 -1 x29 -1 x33 >= -1 ;
-1 x124 +1 x28 >= 0 ;
-1 x124 +1 x34 >= 0 ;
+1 x124 -1 x28 -1 x34 >= -1 ;
-1 x115 +1 x27 >= 0 ;
-1 x115 +1 x35 >= 0 ;
+1 x115 -1 x27 -1 x35 >= -1 ;
-1 x106 +1 x26 >= 0 ;
-1 x106 +1 x36 >= 0 ;
+1 x106 -1 x26 -1 x36 >= -1 ;
-1 x97 +1 x25 >= 0 ;
-1 x97 +1 x37 >= 0 ;
+1 x97 -1 x25 -1 x37 >= -1 ;
-1 x88 +1 x24 >= 0 ;
-1 x88 +1 x38 >= 0 ;
+1 x88 -1 x24 -1 x38 >= -1 ;
-1 x79 +1 x23 >= 0 ;
-1 x79 +1 x39 >= 0 ;
+1 x79 -1 x23 -1 x39 >= -1 ;
-1 x70 +1 x22 >= 0 ;
-1 x70 +1 x40 >= 0 ;
+1 x70 -1 x22 -1 x40 >= -1 ;
-1 x442 +1 x20 >= 0 ;
-1 x442 +1 x2 >= 0 ;
+1 x442 -1 x20 -1 x2 >= -1 ;
-1 x433 +1 x19 >= 0 ;
-1 x433 +1 x3 >= 0 ;
+1 x433 -1 x19 -1 x3 >= -1 ;
-1 x424 +1 x18 >= 0 ;
-1 x424 +1 x4 >= 0 ;
+1 x424 -1 x18 -1 x4 >= -1 ;
-1 x415 +1 x17 >= 0 ;
-1 x415 +1 x5 >= 0 ;
+1 x415 -1 x17 -1 x5 >= -1 ;
-1 x406 +1 x16 >= 0 ;
-1 x406 +1 x6 >= 0 ;
+1 x406 -1 x16 -1 x6 >= -1 ;
-1 x397 +1 x15 >= 0 ;
-1 x397 +1 x7 >= 0 ;
+1 x397 -1 x15 -1 x7 >= -1 ;
-1 x388 +1 x14 >= 0 ;
-1 x388 +1 x8 >= 0 ;
+1 x388 -1 x14 -1 x8 >= -1 ;
-1 x379 +1 x13 >= 0 ;
-1 x379 +1 x9 >= 0 ;
+1 x379 -1 x13 -1 x9 >= -1 ;
-1 x370 +1 x12 >= 0 ;
-1 x370 +1 x10 >= 0 ;
+1 x370 -1 x12 -1 x10 >= -1 ;
-1 x143 +1 x30 >= 0 ;
-1 x143 +1 x33 >= 0 ;
+1 x143 -1 x30 -1 x33 >= -1 ;
-1 x134 +1 x29 >= 0 ;
-1 x134 +1 x34 >= 0 ;
+1 x134 -1 x29 -1 x34 >= -1 ;
-1 x125 +1 x28 >= 0 ;
-1 x125 +1 x35 >= 0 ;
+1 x125 -1 x28 -1 x35 >= -1 ;
-1 x116 +1 x27 >= 0 ;
-1 x116 +1 x36 >= 0 ;
+1 x116 -1 x27 -1 x36 >= -1 ;
-1 x107 +1 x26 >= 0 ;
-1 x107 +1 x37 >= 0 ;
+1 x107 -1 x26 -1 x37 >= -1 ;
-1 x98 +1 x25 >= 0 ;
-1 x98 +1 x38 >= 0 ;
+1 x98 -1 x25 -1 x38 >= -1 ;
-1 x89 +1 x24 >= 0 ;
-1 x89 +1 x39 >= 0 ;
+1 x89 -1 x24 -1 x39 >= -1 ;
-1 x80 +1 x23 >= 0 ;
-1 x80 +1 x40 >= 0 ;
+1 x80 -1 x23 -1 x40 >= -1 ;
-1 x443 +1 x20 >= 0 ;
-1 x443 +1 x3 >= 0 ;
+1 x443 -1 x20 -1 x3 >= -1 ;
-1 x434 +1 x19 >= 0 ;
-1 x434 +1 x4 >= 0 ;
+1 x434 -1 x19 -1 x4 >= -1 ;
-1 x425 +1 x18 >= 0 ;
-1 x425 +1 x5 >= 0 ;
+1 x425 -1 x18 -1 x5 >= -1 ;
-1 x416 +1 x17 >= 0 ;
-1 x416 +1 x6 >= 0 ;
+1 x416 -1 x17 -1 x6 >= -1 ;
-1 x407 +1 x16 >= 0 ;
-1 x407 +1 x7 >= 0 ;
+1 x407 -1 x16 -1 x7 >= -1 ;
-1 x398 +1 x15 >= 0 ;
-1 x398 +1 x8 >= 0 ;
+1 x398 -1 x15 -1 x8 >= -1 ;
-1 x389 +1 x14 >= 0 ;
-1 x389 +1 x9 >= 0 ;
+1 x389 -1 x14 -1 x9 >= -1 ;
-1 x380 +1 x13 >= 0 ;
-1 x380 +1 x10 >= 0 ;
+1 x380 -1 x13 -1 x10 >= -1 ;
-1 x144 +1 x30 >= 0 ;
-1 x144 +1 x34 >= 0 ;
+1 x144 -1 x30 -1 x34 >= -1 ;
-1 x135 +1 x29 >= 0 ;
-1 x135 +1 x35 >= 0 ;
+1 x135 -1 x29 -1 x35 >= -1 ;
-1 x126 +1 x28 >= 0 ;
-1 x126 +1 x36 >= 0 ;
+1 x126 -1 x28 -1 x36 >= -1 ;
-1 x117 +1 x27 >= 0 ;
-1 x117 +1 x37 >= 0 ;
+1 x117 -1 x27 -1 x37 >= -1 ;
-1 x108 +1 x26 >= 0 ;
-1 x108 +1 x38 >= 0 ;
+1 x108 -1 x26 -1 x38 >= -1 ;
-1 x99 +1 x25 >= 0 ;
-1 x99 +1 x39 >= 0 ;
+1 x99 -1 x25 -1 x39 >= -1 ;
-1 x90 +1 x24 >= 0 ;
-1 x90 +1 x40 >= 0 ;
+1 x90 -1 x24 -1 x40 >= -1 ;
-1 x444 +1 x20 >= 0 ;
-1 x444 +1 x4 >= 0 ;
+1 x444 -1 x20 -1 x4 >= -1 ;
-1 x435 +1 x19 >= 0 ;
-1 x435 +1 x5 >= 0 ;
+1 x435 -1 x19 -1 x5 >= -1 ;
-1 x426 +1 x18 >= 0 ;
-1 x426 +1 x6 >= 0 ;
+1 x426 -1 x18 -1 x6 >= -1 ;
-1 x417 +1 x17 >= 0 ;
-1 x417 +1 x7 >= 0 ;
+1 x417 -1 x17 -1 x7 >= -1 ;
-1 x408 +1 x16 >= 0 ;
-1 x408 +1 x8 >= 0 ;
+1 x408 -1 x16 -1 x8 >= -1 ;
-1 x399 +1 x15 >= 0 ;
-1 x399 +1 x9 >= 0 ;
+1 x399 -1 x15 -1 x9 >= -1 ;
-1 x390 +1 x14 >= 0 ;
-1 x390 +1 x10 >= 0 ;
+1 x390 -1 x14 -1 x10 >= -1 ;
-1 x145 +1 x30 >= 0 ;
-1 x145 +1 x35 >= 0 ;
+1 x145 -1 x30 -1 x35 >= -1 ;
-1 x136 +1 x29 >= 0 ;
-1 x136 +1 x36 >= 0 ;
+1 x136 -1 x29 -1 x36 >= -1 ;
-1 x127 +1 x28 >= 0 ;
-1 x127 +1 x37 >= 0 ;
+1 x127 -1 x28 -1 x37 >= -1 ;
-1 x118 +1 x27 >= 0 ;
-1 x118 +1 x38 >= 0 ;
+1 x118 -1 x27 -1 x38 >= -1 ;
-1 x109 +1 x26 >= 0 ;
-1 x109 +1 x39 >= 0 ;
+1 x109 -1 x26 -1 x39 >= -1 ;
-1 x100 +1 x25 >= 0 ;
-1 x100 +1 x40 >= 0 ;
+1 x100 -1 x25 -1 x40 >= -1 ;
-1 x445 +1 x20 >= 0 ;
-1 x445 +1 x5 >= 0 ;
+1 x445 -1 x20 -1 x5 >= -1 ;
-1 x436 +1 x19 >= 0 ;
-1 x436 +1 x6 >= 0 ;
+1 x436 -1 x19 -1 x6 >= -1 ;
-1 x427 +1 x18 >= 0 ;
-1 x427 +1 x7 >= 0 ;
+1 x427 -1 x18 -1 x7 >= -1 ;
-1 x418 +1 x17 >= 0 ;
-1 x418 +1 x8 >= 0 ;
+1 x418 -1 x17 -1 x8 >= -1 ;
-1 x409 +1 x16 >= 0 ;
-1 x409 +1 x9 >= 0 ;
+1 x409 -1 x16 -1 x9 >= -1 ;
-1 x400 +1 x15 >= 0 ;
-1 x400 +1 x10 >= 0 ;
+1 x400 -1 x15 -1 x10 >= -1 ;
-1 x146 +1 x30 >= 0 ;
-1 x146 +1 x36 >= 0 ;
+1 x146 -1 x30 -1 x36 >= -1 ;
-1 x137 +1 x29 >= 0 ;
-1 x137 +1 x37 >= 0 ;
+1 x137 -1 x29 -1 x37 >= -1 ;
-1 x128 +1 x28 >= 0 ;
-1 x128 +1 x38 >= 0 ;
+1 x128 -1 x28 -1 x38 >= -1 ;
-1 x119 +1 x27 >= 0 ;
-1 x119 +1 x39 >= 0 ;
+1 x119 -1 x27 -1 x39 >= -1 ;
-1 x110 +1 x26 >= 0 ;
-1 x110 +1 x40 >= 0 ;
+1 x110 -1 x26 -1 x40 >= -1 ;
-1 x446 +1 x20 >= 0 ;
-1 x446 +1 x6 >= 0 ;
+1 x446 -1 x20 -1 x6 >= -1 ;
-1 x437 +1 x19 >= 0 ;
-1 x437 +1 x7 >= 0 ;
+1 x437 -1 x19 -1 x7 >= -1 ;
-1 x428 +1 x18 >= 0 ;
-1 x428 +1 x8 >= 0 ;
+1 x428 -1 x18 -1 x8 >= -1 ;
-1 x419 +1 x17 >= 0 ;
-1 x419 +1 x9 >= 0 ;
+1 x419 -1 x17 -1 x9 >= -1 ;
-1 x410 +1 x16 >= 0 ;
-1 x410 +1 x10 >= 0 ;
+1 x410 -1 x16 -1 x10 >= -1 ;
-1 x147 +1 x30 >= 0 ;
-1 x147 +1 x37 >= 0 ;
+1 x147 -1 x30 -1 x37 >= -1 ;
-1 x138 +1 x29 >= 0 ;
-1 x138 +1 x38 >= 0 ;
+1 x138 -1 x29 -1 x38 >= -1 ;
-1 x129 +1 x28 >= 0 ;
-1 x129 +1 x39 >= 0 ;
+1 x129 -1 x28 -1 x39 >= -1 ;
-1 x120 +1 x27 >= 0 ;
-1 x120 +1 x40 >= 0 ;
+1 x120 -1 x27 -1 x40 >= -1 ;
-1 x447 +1 x20 >= 0 ;
-1 x447 +1 x7 >= 0 ;
+1 x447 -1 x20 -1 x7 >= -1 ;
-1 x438 +1 x19 >= 0 ;
-1 x438 +1 x8 >= 0 ;
+1 x438 -1 x19 -1 x8 >= -1 ;
-1 x429 +1 x18 >= 0 ;
-1 x429 +1 x9 >= 0 ;
+1 x429 -1 x18 -1 x9 >= -1 ;
-1 x420 +1 x17 >= 0 ;
-1 x420 +1 x10 >= 0 ;
+1 x420 -1 x17 -1 x10 >= -1 ;
-1 x148 +1 x30 >= 0 ;
-1 x148 +1 x38 >= 0 ;
+1 x148 -1 x30 -1 x38 >= -1 ;
-1 x139 +1 x29 >= 0 ;
-1 x139 +1 x39 >= 0 ;
+1 x139 -1 x29 -1 x39 >= -1 ;
-1 x130 +1 x28 >= 0 ;
-1 x130 +1 x40 >= 0 ;
+1 x130 -1 x28 -1 x40 >= -1 ;
-1 x448 +1 x20 >= 0 ;
-1 x448 +1 x8 >= 0 ;
+1 x448 -1 x20 -1 x8 >= -1 ;
-1 x439 +1 x19 >= 0 ;
-1 x439 +1 x9 >= 0 ;
+1 x439 -1 x19 -1 x9 >= -1 ;
-1 x430 +1 x18 >= 0 ;
-1 x430 +1 x10 >= 0 ;
+1 x430 -1 x18 -1 x10 >= -1 ;
-1 x149 +1 x30 >= 0 ;
-1 x149 +1 x39 >= 0 ;
+1 x149 -1 x30 -1 x39 >= -1 ;
-1 x140 +1 x29 >= 0 ;
-1 x140 +1 x40 >= 0 ;
+1 x140 -1 x29 -1 x40 >= -1 ;
-1 x449 +1 x20 >= 0 ;
-1 x449 +1 x9 >= 0 ;
+1 x449 -1 x20 -1 x9 >= -1 ;
-1 x440 +1 x19 >= 0 ;
-1 x440 +1 x10 >= 0 ;
+1 x440 -1 x19 -1 x10 >= -1 ;
-1 x150 +1 x30 >= 0 ;
-1 x150 +1 x40 >= 0 ;
+1 x150 -1 x30 -1 x40 >= -1 ;
-1 x450 +1 x20 >= 0 ;
-1 x450 +1 x10 >= 0 ;
+1 x450 -1 x20 -1 x10 >= -1 ;
